WARNING: for repeatability, setting FPU to use double precision
============================[ Problem Statistics ]=============================
|                                                                             |
|  Number of variables:            50                                         |
|  Number of clauses:             218                                         |
|  Parse time:                   0.00 s                                       |
|                                                                             |
============================[ Search Statistics ]==============================
| Conflicts |          ORIGINAL         |          LEARNT          | Progress |
|           |    Vars  Clauses Literals |    Limit  Clauses Lit/Cl |          |
===============================================================================
===============================================================================
restarts              : 1
conflicts             : 43             (29737 /sec)
decisions             : 59             (0.00 % random) (40802 /sec)
propagations          : 666            (460581 /sec)
conflict literals     : 160            (14.89 % deleted)
Memory used           : 20.00 MB
CPU time              : 0.001446 s

SATISFIABLE
